% Instance for pentominoes model generated using https://github.com/zayenz/minizinc-pentominoes-generator
% Instance generated for board size 15 with 5 tiles using 42 as seed
% Generated board
%    221111111444444
%    551111111144444
%    551111111144444
%    555111111144444
%    555111111114444
%    555111111114444
%    555531111144444
%    555531111144444
%    555531111114444
%    555531111144444
%    555555111144444
%    555555111144444
%    555555111144444
%    555555111144444
%    555555111144444

size = 15;
tiles = 5;
expressions = [
    "( ([2 3 4 5 6]* 1{7} [2 3 4 5 6]{6} [2 3 4 5 6] [2 3 4 5 6]{2} 1{8} [2 3 4 5 6]{5} [2 3 4 5 6] [2 3 4 5 6]{2} 1{8} [2 3 4 5 6]{5} [2 3 4 5 6] [2 3 4 5 6]{3} 1{7} [2 3 4 5 6]{5} [2 3 4 5 6] [2 3 4 5 6]{3} 1{8} [2 3 4 5 6]{4} [2 3 4 5 6] [2 3 4 5 6]{3} 1{8} [2 3 4 5 6]{4} [2 3 4 5 6] [2 3 4 5 6]{5} 1{5} [2 3 4 5 6]{5} [2 3 4 5 6] [2 3 4 5 6]{5} 1{5} [2 3 4 5 6]{5} [2 3 4 5 6] [2 3 4 5 6]{5} 1{6} [2 3 4 5 6]{4} [2 3 4 5 6] [2 3 4 5 6]{5} 1{5} [2 3 4 5 6]{5} [2 3 4 5 6] [2 3 4 5 6]{6} 1{4} [2 3 4 5 6]{5} [2 3 4 5 6] [2 3 4 5 6]{6} 1{4} [2 3 4 5 6]{5} [2 3 4 5 6] [2 3 4 5 6]{6} 1{4} [2 3 4 5 6]{5} [2 3 4 5 6] [2 3 4 5 6]{6} 1{4} [2 3 4 5 6]{5} [2 3 4 5 6] [2 3 4 5 6]{6} 1{4} [2 3 4 5 6]*) | ([2 3 4 5 6]* 1{3} [2 3 4 5 6] [2 3 4 5 6]{9} 1{6} [2 3 4 5 6] [2 3 4 5 6]{9} 1{6} [2 3 4 5 6] [2 3 4 5 6]{5} 1{10} [2 3 4 5 6] 1{15} [2 3 4 5 6] 1{15} [2 3 4 5 6] 1{15} [2 3 4 5 6] 1{14} [2 3 4 5 6]{1} [2 3 4 5 6] [2 3 4 5 6]{6} 1{1} [2 3 4 5 6]{2} 1{2} [2 3 4 5 6]*) | ([2 3 4 5 6]* 1{4} [2 3 4 5 6]{6} [2 3 4 5 6] [2 3 4 5 6]{5} 1{4} [2 3 4 5 6]{6} [2 3 4 5 6] [2 3 4 5 6]{5} 1{4} [2 3 4 5 6]{6} [2 3 4 5 6] [2 3 4 5 6]{5} 1{4} [2 3 4 5 6]{6} [2 3 4 5 6] [2 3 4 5 6]{5} 1{4} [2 3 4 5 6]{6} [2 3 4 5 6] [2 3 4 5 6]{5} 1{5} [2 3 4 5 6]{5} [2 3 4 5 6] [2 3 4 5 6]{4} 1{6} [2 3 4 5 6]{5} [2 3 4 5 6] [2 3 4 5 6]{5} 1{5} [2 3 4 5 6]{5} [2 3 4 5 6] [2 3 4 5 6]{5} 1{5} [2 3 4 5 6]{5} [2 3 4 5 6] [2 3 4 5 6]{4} 1{8} [2 3 4 5 6]{3} [2 3 4 5 6] [2 3 4 5 6]{4} 1{8} [2 3 4 5 6]{3} [2 3 4 5 6] [2 3 4 5 6]{5} 1{7} [2 3 4 5 6]{3} [2 3 4 5 6] [2 3 4 5 6]{5} 1{8} [2 3 4 5 6]{2} [2 3 4 5 6] [2 3 4 5 6]{5} 1{8} [2 3 4 5 6]{2} [2 3 4 5 6] [2 3 4 5 6]{6} 1{7} [2 3 4 5 6]*) | ([2 3 4 5 6]* 1{2} [2 3 4 5 6]{2} 1{1} [2 3 4 5 6]{6} [2 3 4 5 6] [2 3 4 5 6]{1} 1{14} [2 3 4 5 6] 1{15} [2 3 4 5 6] 1{15} [2 3 4 5 6] 1{15} [2 3 4 5 6] 1{10} [2 3 4 5 6]{5} [2 3 4 5 6] 1{6} [2 3 4 5 6]{9} [2 3 4 5 6] 1{6} [2 3 4 5 6]{9} [2 3 4 5 6] 1{3} [2 3 4 5 6]*) | ([2 3 4 5 6]* 1{7} [2 3 4 5 6]{2} [2 3 4 5 6] [2 3 4 5 6]{5} 1{8} [2 3 4 5 6]{2} [2 3 4 5 6] [2 3 4 5 6]{5} 1{8} [2 3 4 5 6]{2} [2 3 4 5 6] [2 3 4 5 6]{5} 1{7} [2 3 4 5 6]{3} [2 3 4 5 6] [2 3 4 5 6]{4} 1{8} [2 3 4 5 6]{3} [2 3 4 5 6] [2 3 4 5 6]{4} 1{8} [2 3 4 5 6]{3} [2 3 4 5 6] [2 3 4 5 6]{5} 1{5} [2 3 4 5 6]{5} [2 3 4 5 6] [2 3 4 5 6]{5} 1{5} [2 3 4 5 6]{5} [2 3 4 5 6] [2 3 4 5 6]{4} 1{6} [2 3 4 5 6]{5} [2 3 4 5 6] [2 3 4 5 6]{5} 1{5} [2 3 4 5 6]{5} [2 3 4 5 6] [2 3 4 5 6]{5} 1{4} [2 3 4 5 6]{6} [2 3 4 5 6] [2 3 4 5 6]{5} 1{4} [2 3 4 5 6]{6} [2 3 4 5 6] [2 3 4 5 6]{5} 1{4} [2 3 4 5 6]{6} [2 3 4 5 6] [2 3 4 5 6]{5} 1{4} [2 3 4 5 6]{6} [2 3 4 5 6] [2 3 4 5 6]{5} 1{4} [2 3 4 5 6]*) | ([2 3 4 5 6]* 1{3} [2 3 4 5 6]{12} [2 3 4 5 6] 1{6} [2 3 4 5 6]{9} [2 3 4 5 6] 1{6} [2 3 4 5 6]{9} [2 3 4 5 6] 1{10} [2 3 4 5 6]{5} [2 3 4 5 6] 1{15} [2 3 4 5 6] 1{15} [2 3 4 5 6] 1{15} [2 3 4 5 6] [2 3 4 5 6]{1} 1{14} [2 3 4 5 6] [2 3 4 5 6]{4} 1{2} [2 3 4 5 6]{2} 1{1} [2 3 4 5 6]*) | ([2 3 4 5 6]* 1{4} [2 3 4 5 6]{5} [2 3 4 5 6] [2 3 4 5 6]{6} 1{4} [2 3 4 5 6]{5} [2 3 4 5 6] [2 3 4 5 6]{6} 1{4} [2 3 4 5 6]{5} [2 3 4 5 6] [2 3 4 5 6]{6} 1{4} [2 3 4 5 6]{5} [2 3 4 5 6] [2 3 4 5 6]{6} 1{4} [2 3 4 5 6]{5} [2 3 4 5 6] [2 3 4 5 6]{5} 1{5} [2 3 4 5 6]{5} [2 3 4 5 6] [2 3 4 5 6]{5} 1{6} [2 3 4 5 6]{4} [2 3 4 5 6] [2 3 4 5 6]{5} 1{5} [2 3 4 5 6]{5} [2 3 4 5 6] [2 3 4 5 6]{5} 1{5} [2 3 4 5 6]{5} [2 3 4 5 6] [2 3 4 5 6]{3} 1{8} [2 3 4 5 6]{4} [2 3 4 5 6] [2 3 4 5 6]{3} 1{8} [2 3 4 5 6]{4} [2 3 4 5 6] [2 3 4 5 6]{3} 1{7} [2 3 4 5 6]{5} [2 3 4 5 6] [2 3 4 5 6]{2} 1{8} [2 3 4 5 6]{5} [2 3 4 5 6] [2 3 4 5 6]{2} 1{8} [2 3 4 5 6]{5} [2 3 4 5 6] [2 3 4 5 6]{2} 1{7} [2 3 4 5 6]*) | ([2 3 4 5 6]* 1{1} [2 3 4 5 6]{2} 1{2} [2 3 4 5 6]{4} [2 3 4 5 6] 1{14} [2 3 4 5 6]{1} [2 3 4 5 6] 1{15} [2 3 4 5 6] 1{15} [2 3 4 5 6] 1{15} [2 3 4 5 6] [2 3 4 5 6]{5} 1{10} [2 3 4 5 6] [2 3 4 5 6]{9} 1{6} [2 3 4 5 6] [2 3 4 5 6]{9} 1{6} [2 3 4 5 6] [2 3 4 5 6]{12} 1{3} [2 3 4 5 6]*) )",
    "( ([1 3 4 5 6]* 2{2} [1 3 4 5 6]*) | ([1 3 4 5 6]* 2{1} [1 3 4 5 6] [1 3 4 5 6]{14} 2{1} [1 3 4 5 6]*) | ([1 3 4 5 6]* 2{1} [1 3 4 5 6]{14} [1 3 4 5 6] 2{1} [1 3 4 5 6]*) )",
    "( ([1 2 4 5 6]* 3{1} [1 2 4 5 6]{10} [1 2 4 5 6] [1 2 4 5 6]{4} 3{1} [1 2 4 5 6]{10} [1 2 4 5 6] [1 2 4 5 6]{4} 3{1} [1 2 4 5 6]{10} [1 2 4 5 6] [1 2 4 5 6]{4} 3{1} [1 2 4 5 6]*) | ([1 2 4 5 6]* 3{4} [1 2 4 5 6]*) | ([1 2 4 5 6]* 3{1} [1 2 4 5 6]{4} [1 2 4 5 6] [1 2 4 5 6]{10} 3{1} [1 2 4 5 6]{4} [1 2 4 5 6] [1 2 4 5 6]{10} 3{1} [1 2 4 5 6]{4} [1 2 4 5 6] [1 2 4 5 6]{10} 3{1} [1 2 4 5 6]*) )",
    "( ([1 2 3 5 6]* 4{6} [1 2 3 5 6] [1 2 3 5 6]{10} 4{5} [1 2 3 5 6] [1 2 3 5 6]{10} 4{5} [1 2 3 5 6] [1 2 3 5 6]{10} 4{5} [1 2 3 5 6] [1 2 3 5 6]{11} 4{4} [1 2 3 5 6] [1 2 3 5 6]{11} 4{4} [1 2 3 5 6] [1 2 3 5 6]{10} 4{5} [1 2 3 5 6] [1 2 3 5 6]{10} 4{5} [1 2 3 5 6] [1 2 3 5 6]{11} 4{4} [1 2 3 5 6] [1 2 3 5 6]{10} 4{5} [1 2 3 5 6] [1 2 3 5 6]{10} 4{5} [1 2 3 5 6] [1 2 3 5 6]{10} 4{5} [1 2 3 5 6] [1 2 3 5 6]{10} 4{5} [1 2 3 5 6] [1 2 3 5 6]{10} 4{5} [1 2 3 5 6] [1 2 3 5 6]{10} 4{5} [1 2 3 5 6]*) | ([1 2 3 5 6]* 4{1} [1 2 3 5 6] 4{6} [1 2 3 5 6]{1} 4{2} [1 2 3 5 6]{2} 4{4} [1 2 3 5 6] 4{15} [1 2 3 5 6] 4{15} [1 2 3 5 6] 4{15} [1 2 3 5 6] 4{15} [1 2 3 5 6]*) | ([1 2 3 5 6]* 4{5} [1 2 3 5 6]{10} [1 2 3 5 6] 4{5} [1 2 3 5 6]{10} [1 2 3 5 6] 4{5} [1 2 3 5 6]{10} [1 2 3 5 6] 4{5} [1 2 3 5 6]{10} [1 2 3 5 6] 4{5} [1 2 3 5 6]{10} [1 2 3 5 6] 4{5} [1 2 3 5 6]{10} [1 2 3 5 6] 4{4} [1 2 3 5 6]{11} [1 2 3 5 6] 4{5} [1 2 3 5 6]{10} [1 2 3 5 6] 4{5} [1 2 3 5 6]{10} [1 2 3 5 6] 4{4} [1 2 3 5 6]{11} [1 2 3 5 6] 4{4} [1 2 3 5 6]{11} [1 2 3 5 6] 4{5} [1 2 3 5 6]{10} [1 2 3 5 6] 4{5} [1 2 3 5 6]{10} [1 2 3 5 6] 4{5} [1 2 3 5 6]{10} [1 2 3 5 6] 4{6} [1 2 3 5 6]*) | ([1 2 3 5 6]* 4{15} [1 2 3 5 6] 4{15} [1 2 3 5 6] 4{15} [1 2 3 5 6] 4{15} [1 2 3 5 6] 4{4} [1 2 3 5 6]{2} 4{2} [1 2 3 5 6]{1} 4{6} [1 2 3 5 6] 4{1} [1 2 3 5 6]*) | ([1 2 3 5 6]* 4{6} [1 2 3 5 6]{9} [1 2 3 5 6] 4{5} [1 2 3 5 6]{10} [1 2 3 5 6] 4{5} [1 2 3 5 6]{10} [1 2 3 5 6] 4{5} [1 2 3 5 6]{10} [1 2 3 5 6] 4{4} [1 2 3 5 6]{11} [1 2 3 5 6] 4{4} [1 2 3 5 6]{11} [1 2 3 5 6] 4{5} [1 2 3 5 6]{10} [1 2 3 5 6] 4{5} [1 2 3 5 6]{10} [1 2 3 5 6] 4{4} [1 2 3 5 6]{11} [1 2 3 5 6] 4{5} [1 2 3 5 6]{10} [1 2 3 5 6] 4{5} [1 2 3 5 6]{10} [1 2 3 5 6] 4{5} [1 2 3 5 6]{10} [1 2 3 5 6] 4{5} [1 2 3 5 6]{10} [1 2 3 5 6] 4{5} [1 2 3 5 6]{10} [1 2 3 5 6] 4{5} [1 2 3 5 6]*) | ([1 2 3 5 6]* 4{1} [1 2 3 5 6]{14} [1 2 3 5 6] 4{4} [1 2 3 5 6]{2} 4{2} [1 2 3 5 6]{1} 4{6} [1 2 3 5 6] 4{15} [1 2 3 5 6] 4{15} [1 2 3 5 6] 4{15} [1 2 3 5 6] 4{15} [1 2 3 5 6]*) | ([1 2 3 5 6]* 4{5} [1 2 3 5 6] [1 2 3 5 6]{10} 4{5} [1 2 3 5 6] [1 2 3 5 6]{10} 4{5} [1 2 3 5 6] [1 2 3 5 6]{10} 4{5} [1 2 3 5 6] [1 2 3 5 6]{10} 4{5} [1 2 3 5 6] [1 2 3 5 6]{10} 4{5} [1 2 3 5 6] [1 2 3 5 6]{11} 4{4} [1 2 3 5 6] [1 2 3 5 6]{10} 4{5} [1 2 3 5 6] [1 2 3 5 6]{10} 4{5} [1 2 3 5 6] [1 2 3 5 6]{11} 4{4} [1 2 3 5 6] [1 2 3 5 6]{11} 4{4} [1 2 3 5 6] [1 2 3 5 6]{10} 4{5} [1 2 3 5 6] [1 2 3 5 6]{10} 4{5} [1 2 3 5 6] [1 2 3 5 6]{10} 4{5} [1 2 3 5 6] [1 2 3 5 6]{9} 4{6} [1 2 3 5 6]*) | ([1 2 3 5 6]* 4{15} [1 2 3 5 6] 4{15} [1 2 3 5 6] 4{15} [1 2 3 5 6] 4{15} [1 2 3 5 6] 4{6} [1 2 3 5 6]{1} 4{2} [1 2 3 5 6]{2} 4{4} [1 2 3 5 6] [1 2 3 5 6]{14} 4{1} [1 2 3 5 6]*) )",
    "( ([1 2 3 4 6]* 5{2} [1 2 3 4 6]{13} [1 2 3 4 6] 5{2} [1 2 3 4 6]{13} [1 2 3 4 6] 5{3} [1 2 3 4 6]{12} [1 2 3 4 6] 5{3} [1 2 3 4 6]{12} [1 2 3 4 6] 5{3} [1 2 3 4 6]{12} [1 2 3 4 6] 5{4} [1 2 3 4 6]{11} [1 2 3 4 6] 5{4} [1 2 3 4 6]{11} [1 2 3 4 6] 5{4} [1 2 3 4 6]{11} [1 2 3 4 6] 5{4} [1 2 3 4 6]{11} [1 2 3 4 6] 5{6} [1 2 3 4 6]{9} [1 2 3 4 6] 5{6} [1 2 3 4 6]{9} [1 2 3 4 6] 5{6} [1 2 3 4 6]{9} [1 2 3 4 6] 5{6} [1 2 3 4 6]{9} [1 2 3 4 6] 5{6} [1 2 3 4 6]*) | ([1 2 3 4 6]* 5{14} [1 2 3 4 6]{1} [1 2 3 4 6] 5{14} [1 2 3 4 6]{1} [1 2 3 4 6] 5{12} [1 2 3 4 6]{3} [1 2 3 4 6] 5{9} [1 2 3 4 6]{6} [1 2 3 4 6] 5{5} [1 2 3 4 6]{10} [1 2 3 4 6] 5{5} [1 2 3 4 6]*) | ([1 2 3 4 6]* 5{6} [1 2 3 4 6] [1 2 3 4 6]{9} 5{6} [1 2 3 4 6] [1 2 3 4 6]{9} 5{6} [1 2 3 4 6] [1 2 3 4 6]{9} 5{6} [1 2 3 4 6] [1 2 3 4 6]{9} 5{6} [1 2 3 4 6] [1 2 3 4 6]{11} 5{4} [1 2 3 4 6] [1 2 3 4 6]{11} 5{4} [1 2 3 4 6] [1 2 3 4 6]{11} 5{4} [1 2 3 4 6] [1 2 3 4 6]{11} 5{4} [1 2 3 4 6] [1 2 3 4 6]{12} 5{3} [1 2 3 4 6] [1 2 3 4 6]{12} 5{3} [1 2 3 4 6] [1 2 3 4 6]{12} 5{3} [1 2 3 4 6] [1 2 3 4 6]{13} 5{2} [1 2 3 4 6] [1 2 3 4 6]{13} 5{2} [1 2 3 4 6]*) | ([1 2 3 4 6]* 5{5} [1 2 3 4 6] [1 2 3 4 6]{10} 5{5} [1 2 3 4 6] [1 2 3 4 6]{6} 5{9} [1 2 3 4 6] [1 2 3 4 6]{3} 5{12} [1 2 3 4 6] [1 2 3 4 6]{1} 5{14} [1 2 3 4 6] [1 2 3 4 6]{1} 5{14} [1 2 3 4 6]*) | ([1 2 3 4 6]* 5{2} [1 2 3 4 6] [1 2 3 4 6]{13} 5{2} [1 2 3 4 6] [1 2 3 4 6]{12} 5{3} [1 2 3 4 6] [1 2 3 4 6]{12} 5{3} [1 2 3 4 6] [1 2 3 4 6]{12} 5{3} [1 2 3 4 6] [1 2 3 4 6]{11} 5{4} [1 2 3 4 6] [1 2 3 4 6]{11} 5{4} [1 2 3 4 6] [1 2 3 4 6]{11} 5{4} [1 2 3 4 6] [1 2 3 4 6]{11} 5{4} [1 2 3 4 6] [1 2 3 4 6]{9} 5{6} [1 2 3 4 6] [1 2 3 4 6]{9} 5{6} [1 2 3 4 6] [1 2 3 4 6]{9} 5{6} [1 2 3 4 6] [1 2 3 4 6]{9} 5{6} [1 2 3 4 6] [1 2 3 4 6]{9} 5{6} [1 2 3 4 6]*) | ([1 2 3 4 6]* 5{14} [1 2 3 4 6] [1 2 3 4 6]{1} 5{14} [1 2 3 4 6] [1 2 3 4 6]{3} 5{12} [1 2 3 4 6] [1 2 3 4 6]{6} 5{9} [1 2 3 4 6] [1 2 3 4 6]{10} 5{5} [1 2 3 4 6] [1 2 3 4 6]{10} 5{5} [1 2 3 4 6]*) | ([1 2 3 4 6]* 5{6} [1 2 3 4 6]{9} [1 2 3 4 6] 5{6} [1 2 3 4 6]{9} [1 2 3 4 6] 5{6} [1 2 3 4 6]{9} [1 2 3 4 6] 5{6} [1 2 3 4 6]{9} [1 2 3 4 6] 5{6} [1 2 3 4 6]{9} [1 2 3 4 6] 5{4} [1 2 3 4 6]{11} [1 2 3 4 6] 5{4} [1 2 3 4 6]{11} [1 2 3 4 6] 5{4} [1 2 3 4 6]{11} [1 2 3 4 6] 5{4} [1 2 3 4 6]{11} [1 2 3 4 6] 5{3} [1 2 3 4 6]{12} [1 2 3 4 6] 5{3} [1 2 3 4 6]{12} [1 2 3 4 6] 5{3} [1 2 3 4 6]{12} [1 2 3 4 6] 5{2} [1 2 3 4 6]{13} [1 2 3 4 6] 5{2} [1 2 3 4 6]*) | ([1 2 3 4 6]* 5{5} [1 2 3 4 6]{10} [1 2 3 4 6] 5{5} [1 2 3 4 6]{10} [1 2 3 4 6] 5{9} [1 2 3 4 6]{6} [1 2 3 4 6] 5{12} [1 2 3 4 6]{3} [1 2 3 4 6] 5{14} [1 2 3 4 6]{1} [1 2 3 4 6] 5{14} [1 2 3 4 6]*) )",
];
